NAME : cgl_70b.5454.tour
COMMENT : Length = 5454
COMMENT : Found by LKH-3 [Keld Helsgaun] Fri Nov  8 17:38:20 2024
TYPE : TOUR
DIMENSION : 71
TOUR_SECTION
29
28
47
39
51
46
17
38
16
6
20
26
19
18
52
30
11
10
14
12
48
31
24
25
13
32
34
33
42
41
36
35
40
43
37
44
45
4
62
3
63
2
1
65
64
66
67
69
70
68
71
61
60
59
58
56
55
57
5
54
15
21
22
8
23
53
9
50
7
49
27
-1
EOF
